12028 : 11977 14495 
20983 : 17468 32 
19185 : 13796 
17468 : 1951 20983 
1951 : 17468 11999 
32 : 20983 9986 
21637 : 9042 
11999 : 13796 1951 
14049 : 11977 11003 
13175 : 99 11003 
11003 : 13175 9986 14049 13645 
17528 : 11545 
2466 : 99 8574 
11545 : 17528 14495 
99 : 2466 13175 
14495 : 12028 11545 
9986 : 32 11003 
9042 : 11890 21637 
11890 : 9042 11977 
11977 : 11890 12028 14049 
8574 : 2466 
4813 : 13645 
13645 : 4813 11003 
13796 : 19185 11999 
8574 17528 4813 21637 19185 
